12903
83
208
61
85
124
60
621
648
373
1970
354
7651
52
126
886
128
731
146
13667
13887
80
152
84
0
51
83
339
2458
481
102
887
407
110
367
142
100
310
360
120
0
4096
80
95
50
7667
46
12807
27
253
0
731
318
3044
2120
394
2429
723
967
55
537
1194
198
37875
52
876
1863
282
296
623
442
38
1760
250
625
1788
57
29
8113
602
4382
1519
2310
844
1478
927
80
456
2050
1362
273
248
0
178
76
113
140
229
227
66
